c This is QMaxSAT 2017 based on 14.07
c This is Glucose 3.0
c This is MiniSat 2.2.0
c WARNING: for repeatability, setting FPU to use double precision
c card = mrwto, comp = 0, pmodel = 0, narr = 21, mct = 76, verb = 0
cr firstCPXsol 0 0 0
c top = 189219
c |  Number of variables:    18432                                            |
c |  Number of clauses:      1500792                                          |
c |  Weight of hard clauses: 189219                                           |
c |  Number of soft clauses: 182700                                           |
c |  Number of unit soft clauses: 0                                           |
c |  Maximum Cardinality (by unit): 5961018      (0           )               |
c last restart ## conflicts  :  7 5613 
o 736 | cpuTime 0.564923 s
c Sum of weights = 283858
c A number of soft clauses remained = 8700
c MRWTO encoding for Pseudo-Boolean Constraints
c sizeMax=736
c No.0 Divisor=10	generated by pow1
c No.1 Divisor=10	generated by pow1
c No.2 Divisor=10	generated by pow1
c p0= 10	p1= 10	p2= 10	
c number of digits = 4
c linkingVar[0].size = 10, linkingVar[1].size = 10, linkingVar[2].size = 8, linkingVar[3].size = 1, 
c Pseudo-Boolean Constraints: 155053 variables and 1231767 clauses
c Sum of weights = 283858
c A number of soft clauses remained = 8700
c MRWTO encoding for Pseudo-Boolean Constraints
c sizeMax=736
c No.0 Divisor=10	generated by pow1
c No.1 Divisor=10	generated by pow1
c No.2 Divisor=10	generated by pow1
c p0= 10	p1= 10	p2= 10	
c number of digits = 4
c linkingVar[0].size = 10, linkingVar[1].size = 10, linkingVar[2].size = 8, linkingVar[3].size = 1, 
c Pseudo-Boolean Constraints: 155053 variables and 1231767 clauses
c Sum of weights = 283858
c A number of soft clauses remained = 8700
c MRWTO encoding for Pseudo-Boolean Constraints
c sizeMax=736
c No.0 Divisor=10	generated by pow1
c No.1 Divisor=10	generated by pow1
c No.2 Divisor=10	generated by pow1
c p0= 10	p1= 10	p2= 10	
c number of digits = 4
c linkingVar[0].size = 10, linkingVar[1].size = 10, linkingVar[2].size = 8, linkingVar[3].size = 1, 
c Pseudo-Boolean Constraints: 155053 variables and 1231767 clauses
c Sum of weights = 283858
c A number of soft clauses remained = 8700
c MRWTO encoding for Pseudo-Boolean Constraints
c sizeMax=736
c No.0 Divisor=10	generated by pow1
c No.1 Divisor=10	generated by pow1
c No.2 Divisor=10	generated by pow1
c p0= 10	p1= 10	p2= 10	
c number of digits = 4
c linkingVar[0].size = 10, linkingVar[1].size = 10, linkingVar[2].size = 8, linkingVar[3].size = 1, 
c Pseudo-Boolean Constraints: 155053 variables and 1231767 clauses
c Sum of weights = 283858
c A number of soft clauses remained = 8700
c MRWTO encoding for Pseudo-Boolean Constraints
c sizeMax=736
c No.0 Divisor=10	generated by pow1
c No.1 Divisor=10	generated by pow1
c No.2 Divisor=10	generated by pow1
c p0= 10	p1= 10	p2= 10	
c number of digits = 4
c linkingVar[0].size = 10, linkingVar[1].size = 10, linkingVar[2].size = 8, linkingVar[3].size = 1, 
c Pseudo-Boolean Constraints: 155053 variables and 1231767 clauses
c Sum of weights = 283858
c A number of soft clauses remained = 8700
c MRWTO encoding for Pseudo-Boolean Constraints
c sizeMax=736
c No.0 Divisor=10	generated by pow1
c No.1 Divisor=10	generated by pow1
c No.2 Divisor=10	generated by pow1
c p0= 10	p1= 10	p2= 10	
c number of digits = 4
c linkingVar[0].size = 10, linkingVar[1].size = 10, linkingVar[2].size = 8, linkingVar[3].size = 1, 
c Pseudo-Boolean Constraints: 155053 variables and 1231767 clauses
c Sum of weights = 283858
c A number of soft clauses remained = 8700
c MRWTO encoding for Pseudo-Boolean Constraints
c sizeMax=736
c No.0 Divisor=10	generated by pow1
c No.1 Divisor=10	generated by pow1
c No.2 Divisor=10	generated by pow1
c p0= 10	p1= 10	p2= 10	
c number of digits = 4
c linkingVar[0].size = 10, linkingVar[1].size = 10, linkingVar[2].size = 8, linkingVar[3].size = 1, 
c Pseudo-Boolean Constraints: 155053 variables and 1231767 clauses
c Sum of weights = 283858
c A number of soft clauses remained = 8700
c MRWTO encoding for Pseudo-Boolean Constraints
c sizeMax=736
c No.0 Divisor=10	generated by pow1
c No.1 Divisor=10	generated by pow1
c No.2 Divisor=10	generated by pow1
c p0= 10	p1= 10	p2= 10	
c number of digits = 4
c linkingVar[0].size = 10, linkingVar[1].size = 10, linkingVar[2].size = 8, linkingVar[3].size = 1, 
c Pseudo-Boolean Constraints: 155053 variables and 1231767 clauses
c Sum of weights = 283858
c A number of soft clauses remained = 8700
c MRWTO encoding for Pseudo-Boolean Constraints
c sizeMax=736
c No.0 Divisor=10	generated by pow1
c No.1 Divisor=10	generated by pow1
c No.2 Divisor=10	generated by pow1
c p0= 10	p1= 10	p2= 10	
c number of digits = 4
c linkingVar[0].size = 10, linkingVar[1].size = 10, linkingVar[2].size = 8, linkingVar[3].size = 1, 
c Pseudo-Boolean Constraints: 155053 variables and 1231767 clauses
c Sum of weights = 283858
c A number of soft clauses remained = 8700
c MRWTO encoding for Pseudo-Boolean Constraints
c sizeMax=736
c No.0 Divisor=10	generated by pow1
c No.1 Divisor=10	generated by pow1
c No.2 Divisor=10	generated by pow1
c p0= 10	p1= 10	p2= 10	
c number of digits = 4
c linkingVar[0].size = 10, linkingVar[1].size = 10, linkingVar[2].size = 8, linkingVar[3].size = 1, 
c Pseudo-Boolean Constraints: 155053 variables and 1231767 clauses
c Sum of weights = 283858
c A number of soft clauses remained = 8700
c MRWTO encoding for Pseudo-Boolean Constraints
c sizeMax=736
c No.0 Divisor=10	generated by pow1
c No.1 Divisor=10	generated by pow1
c No.2 Divisor=10	generated by pow1
c p0= 10	p1= 10	p2= 10	
c number of digits = 4
c linkingVar[0].size = 10, linkingVar[1].size = 10, linkingVar[2].size = 8, linkingVar[3].size = 1, 
c Pseudo-Boolean Constraints: 155053 variables and 1231767 clauses
c Sum of weights = 283858
c A number of soft clauses remained = 8700
c MRWTO encoding for Pseudo-Boolean Constraints
c sizeMax=736
c No.0 Divisor=10	generated by pow1
c No.1 Divisor=10	generated by pow1
c No.2 Divisor=10	generated by pow1
c p0= 10	p1= 10	p2= 10	
c number of digits = 4
c linkingVar[0].size = 10, linkingVar[1].size = 10, linkingVar[2].size = 8, linkingVar[3].size = 1, 
c Pseudo-Boolean Constraints: 155053 variables and 1231767 clauses
c Sum of weights = 283858
c A number of soft clauses remained = 8700
c MRWTO encoding for Pseudo-Boolean Constraints
c sizeMax=736
c No.0 Divisor=10	generated by pow1
c No.1 Divisor=10	generated by pow1
c No.2 Divisor=10	generated by pow1
c p0= 10	p1= 10	p2= 10	
c number of digits = 4
c linkingVar[0].size = 10, linkingVar[1].size = 10, linkingVar[2].size = 8, linkingVar[3].size = 1, 
c Pseudo-Boolean Constraints: 155053 variables and 1231767 clauses
c Sum of weights = 283858
c A number of soft clauses remained = 8700
c MRWTO encoding for Pseudo-Boolean Constraints
c sizeMax=736
c No.0 Divisor=10	generated by pow1
c No.1 Divisor=10	generated by pow1
c No.2 Divisor=10	generated by pow1
c p0= 10	p1= 10	p2= 10	
c number of digits = 4
c linkingVar[0].size = 10, linkingVar[1].size = 10, linkingVar[2].size = 8, linkingVar[3].size = 1, 
c Pseudo-Boolean Constraints: 155053 variables and 1231767 clauses
c Sum of weights = 283858
c A number of soft clauses remained = 8700
c MRWTO encoding for Pseudo-Boolean Constraints
c sizeMax=736
c No.0 Divisor=10	generated by pow1
c No.1 Divisor=10	generated by pow1
c No.2 Divisor=10	generated by pow1
c p0= 10	p1= 10	p2= 10	
c number of digits = 4
c linkingVar[0].size = 10, linkingVar[1].size = 10, linkingVar[2].size = 8, linkingVar[3].size = 1, 
c Pseudo-Boolean Constraints: 155053 variables and 1231767 clauses
c Sum of weights = 283858
c A number of soft clauses remained = 8700
c MRWTO encoding for Pseudo-Boolean Constraints
c sizeMax=736
c No.0 Divisor=10	generated by pow1
c No.1 Divisor=10	generated by pow1
c No.2 Divisor=10	generated by pow1
c p0= 10	p1= 10	p2= 10	
c number of digits = 4
c linkingVar[0].size = 10, linkingVar[1].size = 10, linkingVar[2].size = 8, linkingVar[3].size = 1, 
c Pseudo-Boolean Constraints: 155053 variables and 1231767 clauses
c Sum of weights = 283858
c A number of soft clauses remained = 8700
c MRWTO encoding for Pseudo-Boolean Constraints
c sizeMax=736
c No.0 Divisor=10	generated by pow1
c No.1 Divisor=10	generated by pow1
c No.2 Divisor=10	generated by pow1
c p0= 10	p1= 10	p2= 10	
c number of digits = 4
c linkingVar[0].size = 10, linkingVar[1].size = 10, linkingVar[2].size = 8, linkingVar[3].size = 1, 
c Pseudo-Boolean Constraints: 155053 variables and 1231767 clauses
c Sum of weights = 283858
c A number of soft clauses remained = 8700
c MRWTO encoding for Pseudo-Boolean Constraints
c sizeMax=736
c No.0 Divisor=10	generated by pow1
c No.1 Divisor=10	generated by pow1
c No.2 Divisor=10	generated by pow1
c p0= 10	p1= 10	p2= 10	
c number of digits = 4
c linkingVar[0].size = 10, linkingVar[1].size = 10, linkingVar[2].size = 8, linkingVar[3].size = 1, 
c Pseudo-Boolean Constraints: 155053 variables and 1231767 clauses
c Sum of weights = 283858
c A number of soft clauses remained = 8700
c MRWTO encoding for Pseudo-Boolean Constraints
c sizeMax=736
c No.0 Divisor=10	generated by pow1
c No.1 Divisor=10	generated by pow1
c No.2 Divisor=10	generated by pow1
c p0= 10	p1= 10	p2= 10	
c number of digits = 4
c linkingVar[0].size = 10, linkingVar[1].size = 10, linkingVar[2].size = 8, linkingVar[3].size = 1, 
c Pseudo-Boolean Constraints: 155053 variables and 1231767 clauses
c Sum of weights = 283858
c A number of soft clauses remained = 8700
c MRWTO encoding for Pseudo-Boolean Constraints
c sizeMax=736
c No.0 Divisor=10	generated by pow1
c No.1 Divisor=10	generated by pow1
c No.2 Divisor=10	generated by pow1
c p0= 10	p1= 10	p2= 10	
c number of digits = 4
c linkingVar[0].size = 10, linkingVar[1].size = 10, linkingVar[2].size = 8, linkingVar[3].size = 1, 
c Pseudo-Boolean Constraints: 155053 variables and 1231767 clauses
c Sum of weights = 283858
c A number of soft clauses remained = 8700
c MRWTO encoding for Pseudo-Boolean Constraints
c sizeMax=736
c No.0 Divisor=10	generated by pow1
c No.1 Divisor=10	generated by pow1
c No.2 Divisor=10	generated by pow1
c p0= 10	p1= 10	p2= 10	
c number of digits = 4
c linkingVar[0].size = 10, linkingVar[1].size = 10, linkingVar[2].size = 8, linkingVar[3].size = 1, 
c Pseudo-Boolean Constraints: 155053 variables and 1231767 clauses
c last restart ## conflicts  :  134 33107 
o 454 | cpuTime 8.18291 s
c last restart ## conflicts  :  530 40358 
o 431 | cpuTime 19.1917 s
c last restart ## conflicts  :  643 95215 
o 376 | cpuTime 29.9864 s
c last restart ## conflicts  :  299 40837 
o 353 | cpuTime 54.1555 s
c last restart ## conflicts  :  535 37863 
o 346 | cpuTime 72.9983 s
c last restart ## conflicts  :  387 29774 
o 293 | cpuTime 83.2276 s
c last restart ## conflicts  :  316 98413 
o 280 | cpuTime 242.302 s
c last restart ## conflicts  :  335 39666 
o 230 | cpuTime 251.5 s
c last restart ## conflicts  :  547 68724 
o 208 | cpuTime 775.225 s
c last restart ## conflicts  :  371 21802 
o 203 | cpuTime 796.03 s
c last restart ## conflicts  :  416 44504 
o 202 | cpuTime 1430.89 s
c last restart ## conflicts  :  593 10035 
o 201 | cpuTime 2035.09 s
s UNKNOWN
c Search is stopped by a limit (maybe time-limit)
cr positiVarArr: [ | 36(1->16) | 170(1->54) | 280(1->68) | 370(1->62) | 445(1->41) | 563(1->63) | 610(1->14) | 741(1->49) | 863(1->75) | 928(1->44) | 1023(1->43) | 1134(1->58) | 1233(1->61) | 1288(1->20) | 1373(1->9) | 1487(1->27) | 1581(1->25) | 1669(1->17) | 1766(1->18) | 1903(1->59) | 2004(1->64) | 2092(2->56) | 2136(3->4) | 2302(4->74) | 2307(5->1) | 2416(6->1) | 2556(7->40) | 2610(8->1) | 2718(9->10) | 2843(10->39) | 2938(11->38) | 2988(12->1) | 3152(13->60) | 3191(14->3) | 3297(15->13) | 3365(16->1) | 3499(17->23) | 3622(18->50) | 3734(19->66) | 3801(20->37) | 3890(21->30) | 3946(22->1) | 4052(23->1) | 4137(24->1) | 4255(25->11) | 4331(26->1) | 4471(27->35) | 4574(28->42) | 4673(29->45) | 4725(30->1) | 4815(31->1) | 4897(32->1) | 5011(33->1) | 5114(34->6) | 5236(35->32) | 5329(36->29) | 5432(37->36) | 5557(38->65) | 5660(39->72) | 5739(40->55) | 5799(41->19) | 5928(42->52) | 5994(43->22) | 6092(44->24) | 6179(45->15) | 6268(46->8) | 6404(47->48) | 6473(48->21) | 6624(49->76) | 6675(50->31) | 6734(51->1) | 6893(52->57) | 7002(53->70) | 7074(54->46) | 7108(55->1) | 7273(56->53) | 7302(57->1) | 7485(58->73) | 7520(59->12) | 7651(60->47) | 7705(61->5) | 7798(62->2) | 7879(63->1) | 8021(64->33) | 8135(65->51) | 8206(66->26) | 8310(67->34) | 8443(68->71) | 8450(69->1) | 8557(70->1) | 8729(71->69) | 8753(72->1) | 8840(73->1) | 9015(74->67) | 9072(75->28) | 9147(76->7) | ]
cr the 1-th chain: [ 1->16->1 ] (#non-depot=1) {#cumul.=2}
cr the 2-th chain: [ 1->54->46->8->1 ] (#non-depot=3) {#cumul.=5}
cr the 3-th chain: [ 1->68->71->69->1 ] (#non-depot=3) {#cumul.=8}
cr the 4-th chain: [ 1->62->2->56->53->70->1 ] (#non-depot=5) {#cumul.=13}
cr the 5-th chain: [ 1->41->19->66->26->1 ] (#non-depot=4) {#cumul.=17}
cr the 6-th chain: [ 1->63->1 ] (#non-depot=1) {#cumul.=18}
cr the 7-th chain: [ 1->14->3->4->74->67->34->6->1 ] (#non-depot=7) {#cumul.=25}
cr the 8-th chain: [ 1->49->76->7->40->55->1 ] (#non-depot=5) {#cumul.=30}
cr the 9-th chain: [ 1->75->28->42->52->57->1 ] (#non-depot=5) {#cumul.=35}
cr the 10-th chain: [ 1->44->24->1 ] (#non-depot=2) {#cumul.=37}
cr the 11-th chain: [ 1->43->22->1 ] (#non-depot=2) {#cumul.=39}
cr the 12-th chain: [ 1->58->73->1 ] (#non-depot=2) {#cumul.=41}
cr the 13-th chain: [ 1->61->5->1 ] (#non-depot=2) {#cumul.=43}
cr the 14-th chain: [ 1->20->37->36->29->45->15->13->60->47->48->21->30->1 ] (#non-depot=12) {#cumul.=55}
cr the 15-th chain: [ 1->9->10->39->72->1 ] (#non-depot=4) {#cumul.=59}
cr the 16-th chain: [ 1->27->35->32->1 ] (#non-depot=3) {#cumul.=62}
cr the 17-th chain: [ 1->25->11->38->65->51->1 ] (#non-depot=5) {#cumul.=67}
cr the 18-th chain: [ 1->17->23->1 ] (#non-depot=2) {#cumul.=69}
cr the 19-th chain: [ 1->18->50->31->1 ] (#non-depot=3) {#cumul.=72}
cr the 20-th chain: [ 1->59->12->1 ] (#non-depot=2) {#cumul.=74}
cr the 21-th chain: [ 1->64->33->1 ] (#non-depot=2) {#cumul.=76}
c Latest Answer = 0 by 13 loops
c restarts              : 20456
c conflicts             : 3054191        (849 /sec)
c decisions             : 146836054      (0.00 % random) (40829 /sec)
c propagations          : 35743952483    (9938961 /sec)
c conflict literals     : 522747022      (30.91 % deleted)
c Memory used           : 3105.00 MB
c CPU time              : 3596.35 s
